Route #1: 44 67 88 40
Route #2: 75 93
Route #3: 31 46 35
Route #4: 32 33 53 73 95 24
Route #5: 7 2 45 43 29 36 72 57
Route #6: 23 61 100
Route #7: 89 98 99 62 71
Route #8: 28 42 78 65 25
Route #9: 14 49 6 37 87
Route #10: 52 91 50
Route #11: 19 97 27
Route #12: 18 10 39
Route #13: 76 55 16 69
Route #14: 34 64 96 48 26 47 38
Route #15: 68 90 84 66
Route #16: 92 9 86
Route #17: 74 13 4
Route #18: 3 77 63
Route #19: 20 41 22 15
Route #20: 81 51 83
Route #21: 59 60 82
Route #22: 80 94 56 21
Route #23: 17 8
Route #24: 1 70 54
Route #25: 5 12 58
Route #26: 30 85 11 79
Cost 27591.0000
Time 16.0003